Minimize
  obj: 1.0000000000000000e+00 x0 + 1.5000000000000000e+00 x1
Subject To
 C0 : 1.5000000000000000e+00 x0 + 1.5000000000000000e+00 x1 >= -1.0000000000000000e+00
Bounds
  -1.0000000000000000e+00 <= x0 <= 3.0000000000000000e+00
  -1.0000000000000000e+00 <= x1 <= 7.0000000000000000e+00
End
